p cnf 152 393
a 26 28 31 34 2 4 10 12 73 82 93 103 19 20 131 145 1 9 18 25 0
d 80 1 9 0
d 120 18 25 0
d 3 2 0
d 5 4 0
d 6 2 4 0
d 7 1 2 4 0
d 8 1 2 4 0
d 11 10 0
d 13 12 0
d 14 10 12 0
d 15 9 10 12 0
d 16 9 10 12 0
d 17 1 2 4 9 10 12 0
d 21 19 20 0
d 22 18 19 20 0
d 23 18 19 20 0
d 24 1 2 4 9 10 12 18 19 20 0
d 27 26 0
d 29 28 0
d 30 26 28 0
d 32 31 0
d 33 26 28 31 0
d 35 34 0
d 36 26 28 31 34 0
d 37 25 26 28 31 34 0
d 38 25 26 28 31 34 0
d 39 1 2 4 9 10 12 18 19 20 25 26 28 31 34 0
d 40 26 0
d 41 26 28 0
d 42 26 28 0
d 43 26 28 0
d 44 31 26 0
d 45 31 26 28 0
d 46 31 26 28 0
d 47 26 28 31 0
d 48 26 28 31 34 0
d 49 26 28 31 34 0
d 50 26 28 31 34 0
d 51 31 34 0
d 52 2 26 0
d 53 2 26 28 0
d 54 31 34 2 26 28 0
d 55 31 34 2 26 28 0
d 56 26 28 31 34 2 0
d 57 2 4 0
d 58 2 4 26 28 31 34 0
d 59 2 4 26 28 31 34 0
d 60 26 28 31 34 2 4 0
d 61 10 26 0
d 62 10 26 28 0
d 63 31 34 2 0
d 64 31 34 2 4 0
d 65 10 26 28 31 34 2 4 0
d 66 10 26 28 31 34 2 4 0
d 67 26 28 31 34 2 4 10 0
d 68 2 4 10 0
d 69 2 4 10 12 0
d 70 26 28 31 34 2 4 10 12 0
d 71 26 28 31 34 2 4 10 12 0
d 72 26 28 31 34 2 4 10 12 0
d 74 73 26 0
d 75 73 26 28 0
d 76 10 12 73 26 28 0
d 77 31 34 2 4 10 12 73 26 28 0
d 78 31 34 2 4 10 12 73 26 28 0
d 79 26 28 31 34 2 4 10 12 73 0
d 81 73 0
d 83 73 82 0
d 84 73 82 26 28 31 34 0
d 85 1 9 73 82 26 28 31 34 0
d 86 2 4 10 12 0
d 87 2 4 10 12 73 82 26 28 31 34 0
d 88 1 9 73 82 26 28 31 34 2 4 10 12 0
d 89 26 28 31 34 2 4 10 12 73 1 9 82 0
d 90 10 12 73 0
d 91 82 0
d 92 10 12 73 82 0
d 94 93 26 0
d 95 93 26 28 0
d 96 93 26 28 31 34 2 4 0
d 97 10 12 73 82 93 26 28 31 34 2 4 0
d 98 10 12 73 82 93 26 28 31 34 2 4 0
d 99 26 28 31 34 2 4 10 12 73 1 9 82 93 0
d 100 73 82 0
d 101 93 0
d 102 73 82 93 0
d 104 73 82 93 103 0
d 105 26 28 31 34 1 9 0
d 106 73 82 93 103 26 28 31 34 1 9 0
d 107 26 28 31 34 2 4 10 12 0
d 108 73 82 93 103 26 28 31 34 2 4 10 12 0
d 109 73 82 93 103 26 28 31 34 1 9 2 4 10 12 0
d 110 26 28 31 34 2 4 10 12 73 1 9 82 93 103 0
d 111 103 0
d 112 93 103 0
d 113 19 26 0
d 114 19 26 28 0
d 115 93 103 19 26 28 0
d 116 31 34 2 4 10 12 73 82 0
d 117 93 103 19 26 28 31 34 2 4 10 12 73 82 0
d 118 93 103 19 26 28 31 34 2 4 10 12 73 82 0
d 119 26 28 31 34 2 4 10 12 73 1 9 82 93 103 19 0
d 121 73 82 93 103 0
d 122 1 9 73 82 93 103 0
d 123 18 25 1 9 73 82 93 103 0
d 124 19 0
d 125 19 20 0
d 126 19 20 26 28 31 34 0
d 127 2 4 10 12 73 82 93 103 0
d 128 19 20 26 28 31 34 2 4 10 12 73 82 93 103 0
d 129 18 25 1 9 73 82 93 103 19 20 26 28 31 34 2 4 10 12 0
d 130 26 28 31 34 2 4 10 12 73 1 9 82 93 103 19 18 25 20 0
d 132 131 26 0
d 133 131 26 28 0
d 134 131 26 28 31 34 2 4 0
d 135 93 103 19 0
d 136 20 0
d 137 93 103 19 20 0
d 138 10 12 73 82 93 103 19 20 0
d 139 131 26 28 31 34 2 4 10 12 73 82 93 103 19 20 0
d 140 131 26 28 31 34 2 4 10 12 73 82 93 103 19 20 0
d 141 26 28 31 34 2 4 10 12 73 1 9 82 93 103 19 18 25 20 131 0
d 142 19 20 0
d 143 131 0
d 144 19 20 131 0
d 146 19 20 131 145 0
d 147 73 82 93 103 19 20 131 145 0
d 148 26 28 31 34 1 9 73 82 93 103 19 20 131 145 0
d 149 26 28 31 34 2 4 10 12 73 82 93 103 19 20 131 145 0
d 150 26 28 31 34 1 9 73 82 93 103 19 20 131 145 2 4 10 12 0
d 151 26 28 31 34 2 4 10 12 73 1 9 82 93 103 19 18 25 20 131 145 0
d 152 1 2 4 9 10 12 18 19 20 25 26 28 31 34 73 82 93 103 131 145 0
3 2 0
-3 -2 0
5 4 0
-5 -4 0
-6 3 0
-6 5 0
6 -3 -5 0
7 -1 -6 0
7 1 6 0
-7 -1 6 0
-7 1 -6 0
8 7 0
-8 -7 0
11 10 0
-11 -10 0
13 12 0
-13 -12 0
-14 11 0
-14 13 0
14 -11 -13 0
15 -9 -14 0
15 9 14 0
-15 -9 14 0
-15 9 -14 0
16 15 0
-16 -15 0
17 -8 0
17 -16 0
-17 8 16 0
21 -19 -20 0
21 19 20 0
-21 -19 20 0
-21 19 -20 0
22 -18 -21 0
22 18 21 0
-22 -18 21 0
-22 18 -21 0
23 22 0
-23 -22 0
24 -17 0
24 -23 0
-24 17 23 0
27 26 0
-27 -26 0
29 28 0
-29 -28 0
-30 27 0
-30 29 0
30 -27 -29 0
32 31 0
-32 -31 0
-33 30 0
-33 32 0
33 -30 -32 0
35 34 0
-35 -34 0
-36 33 0
-36 35 0
36 -33 -35 0
37 -25 -36 0
37 25 36 0
-37 -25 36 0
-37 25 -36 0
38 37 0
-38 -37 0
39 -24 0
39 -38 0
-39 24 38 0
40 -26 -26 0
40 26 26 0
-40 -26 26 0
-40 26 -26 0
-41 27 0
-41 28 0
41 -27 -28 0
42 -41 -41 0
42 41 41 0
-42 -41 41 0
-42 41 -41 0
-43 40 0
-43 42 0
43 -40 -42 0
-44 31 0
-44 27 0
44 -31 -27 0
-45 44 0
-45 29 0
45 -44 -29 0
46 -45 -45 0
46 45 45 0
-46 -45 45 0
-46 45 -45 0
-47 43 0
-47 46 0
47 -43 -46 0
-48 33 0
-48 34 0
48 -33 -34 0
49 -48 -48 0
49 48 48 0
-49 -48 48 0
-49 48 -48 0
-50 47 0
-50 49 0
50 -47 -49 0
-51 32 0
-51 35 0
51 -32 -35 0
-52 2 0
-52 27 0
52 -2 -27 0
-53 52 0
-53 29 0
53 -52 -29 0
-54 51 0
-54 53 0
54 -51 -53 0
55 -54 -54 0
55 54 54 0
-55 -54 54 0
-55 54 -54 0
-56 50 0
-56 55 0
56 -50 -55 0
-57 3 0
-57 4 0
57 -3 -4 0
-58 57 0
-58 36 0
58 -57 -36 0
59 -58 -58 0
59 58 58 0
-59 -58 58 0
-59 58 -58 0
-60 56 0
-60 59 0
60 -56 -59 0
-61 10 0
-61 27 0
61 -10 -27 0
-62 61 0
-62 29 0
62 -61 -29 0
-63 51 0
-63 3 0
63 -51 -3 0
-64 63 0
-64 5 0
64 -63 -5 0
-65 62 0
-65 64 0
65 -62 -64 0
66 -65 -65 0
66 65 65 0
-66 -65 65 0
-66 65 -65 0
-67 60 0
-67 66 0
67 -60 -66 0
-68 6 0
-68 11 0
68 -6 -11 0
-69 68 0
-69 12 0
69 -68 -12 0
-70 36 0
-70 69 0
70 -36 -69 0
71 -70 -70 0
71 70 70 0
-71 -70 70 0
-71 70 -70 0
-72 67 0
-72 71 0
72 -67 -71 0
-74 73 0
-74 27 0
74 -73 -27 0
-75 74 0
-75 29 0
75 -74 -29 0
-76 14 0
-76 75 0
76 -14 -75 0
-77 64 0
-77 76 0
77 -64 -76 0
78 -77 -77 0
78 77 77 0
-78 -77 77 0
-78 77 -77 0
-79 72 0
-79 78 0
79 -72 -78 0
81 73 0
-81 -73 0
-83 81 0
-83 82 0
83 -81 -82 0
-84 83 0
-84 36 0
84 -83 -36 0
-85 80 0
-85 84 0
85 -80 -84 0
-86 68 0
-86 13 0
86 -68 -13 0
-87 86 0
-87 84 0
87 -86 -84 0
88 -85 -87 0
88 85 87 0
-88 -85 87 0
-88 85 -87 0
-89 79 0
-89 88 0
89 -79 -88 0
-90 14 0
-90 81 0
90 -14 -81 0
91 82 0
-91 -82 0
-92 90 0
-92 91 0
92 -90 -91 0
-94 93 0
-94 27 0
94 -93 -27 0
-95 94 0
-95 29 0
95 -94 -29 0
-96 95 0
-96 64 0
96 -95 -64 0
-97 92 0
-97 96 0
97 -92 -96 0
98 -97 -97 0
98 97 97 0
-98 -97 97 0
-98 97 -97 0
-99 89 0
-99 98 0
99 -89 -98 0
-100 81 0
-100 91 0
100 -81 -91 0
101 93 0
-101 -93 0
-102 100 0
-102 101 0
102 -100 -101 0
-104 102 0
-104 103 0
104 -102 -103 0
-105 36 0
-105 80 0
105 -36 -80 0
-106 104 0
-106 105 0
106 -104 -105 0
-107 36 0
-107 86 0
107 -36 -86 0
-108 104 0
-108 107 0
108 -104 -107 0
109 -106 -108 0
109 106 108 0
-109 -106 108 0
-109 106 -108 0
-110 99 0
-110 109 0
110 -99 -109 0
111 103 0
-111 -103 0
-112 101 0
-112 111 0
112 -101 -111 0
-113 19 0
-113 27 0
113 -19 -27 0
-114 113 0
-114 29 0
114 -113 -29 0
-115 112 0
-115 114 0
115 -112 -114 0
-116 64 0
-116 92 0
116 -64 -92 0
-117 115 0
-117 116 0
117 -115 -116 0
118 -117 -117 0
118 117 117 0
-118 -117 117 0
-118 117 -117 0
-119 110 0
-119 118 0
119 -110 -118 0
-121 102 0
-121 111 0
121 -102 -111 0
-122 80 0
-122 121 0
122 -80 -121 0
-123 120 0
-123 122 0
123 -120 -122 0
124 19 0
-124 -19 0
-125 124 0
-125 20 0
125 -124 -20 0
-126 125 0
-126 36 0
126 -125 -36 0
-127 86 0
-127 121 0
127 -86 -121 0
-128 126 0
-128 127 0
128 -126 -127 0
129 -123 -128 0
129 123 128 0
-129 -123 128 0
-129 123 -128 0
-130 119 0
-130 129 0
130 -119 -129 0
-132 131 0
-132 27 0
132 -131 -27 0
-133 132 0
-133 29 0
133 -132 -29 0
-134 133 0
-134 64 0
134 -133 -64 0
-135 112 0
-135 124 0
135 -112 -124 0
136 20 0
-136 -20 0
-137 135 0
-137 136 0
137 -135 -136 0
-138 92 0
-138 137 0
138 -92 -137 0
-139 134 0
-139 138 0
139 -134 -138 0
140 -139 -139 0
140 139 139 0
-140 -139 139 0
-140 139 -139 0
-141 130 0
-141 140 0
141 -130 -140 0
-142 124 0
-142 136 0
142 -124 -136 0
143 131 0
-143 -131 0
-144 142 0
-144 143 0
144 -142 -143 0
-146 144 0
-146 145 0
146 -144 -145 0
-147 121 0
-147 146 0
147 -121 -146 0
-148 105 0
-148 147 0
148 -105 -147 0
-149 107 0
-149 147 0
149 -107 -147 0
150 -148 -149 0
150 148 149 0
-150 -148 149 0
-150 148 -149 0
-151 141 0
-151 150 0
151 -141 -150 0
152 -39 0
152 -151 0
-152 39 151 0
152 0
